NAME : single
TYPE : ATSP
DIMENSION : 7
EDGE_WEIGHT_TYPE : EXPLICIT
EDGE_WEIGHT_FORMAT : FULL_MATRIX
EDGE_WEIGHT_SECTION
0 50400 50300 1600 1400 100 200 
0 0 200 400 400 50000 50000 
0 200 0 200 200 50000 50000 
0 400 200 0 100 50000 50000 
0 400 200 100 0 50000 50000 
0 50000 50000 50000 50000 0 100 
0 50000 50000 50000 50000 100 0 
